
Value of objective function: 0.06567848

Actual values of the variables:
pL1_div_from_law        0.0656785
comp_pos0                       0
comp_neg0                       0
comp_pos1                       0
comp_neg1                       0
comp_pos2                       0
comp_neg2                       0
comp_pos3                       0
comp_neg3                       0
comp_pos4                       0
comp_neg4                       0
comp_pos5                       0
comp_neg5                       0
comp_pos6               0.0656785
comp_neg6                       0
comp_pos7                       0
comp_neg7                       0
comp_pos8                       0
comp_neg8                       0
comp_pos9                       0
comp_neg9                       0
comp_pos10                      0
comp_neg10                      0
comp_pos11                      0
comp_neg11                      0
comp_pos12                      0
comp_neg12                      0
comp_pos13                      0
comp_neg13                      0
z_c0_t0               1.32138e+10
p0_c0_t0              2.15562e+09
p1_c0_t0              1.05272e+08
p2_c0_t0              1.05642e+10
p3_c0_t0              3.88715e+08
diff0                           0
normdiff0                       0
z_c0_t1               1.47752e+10
p0_c0_t1              1.89185e+09
p1_c0_t1              1.16885e+08
p2_c0_t1              1.18546e+10
p3_c0_t1               9.1182e+08
diff1                           0
normdiff1                       0
z_c1_t0               1.65566e+10
p0_c1_t0              2.20128e+09
p1_c1_t0              1.36618e+08
p2_c1_t0              1.40483e+10
p3_c1_t0              1.70339e+08
diff2                           0
normdiff2                       0
z_c1_t1               1.94959e+10
p0_c1_t1              2.24064e+09
p1_c1_t1              1.92432e+08
p2_c1_t1              1.68339e+10
p3_c1_t1               2.2895e+08
diff3                           0
normdiff3                       0
z_c2_t0               7.24754e+09
p0_c2_t0              7.43617e+08
p1_c2_t0              5.51971e+07
p2_c2_t0              6.29815e+09
p3_c2_t0              1.50576e+08
diff4                           0
normdiff4                       0
z_c2_t1               7.97123e+09
p0_c2_t1              6.09699e+08
p1_c2_t1              6.45183e+07
p2_c2_t1              7.06732e+09
p3_c2_t1              2.29692e+08
diff5                           0
normdiff5                       0
z_c3_t0               1.22612e+10
p0_c3_t0              1.34538e+09
p1_c3_t0              9.43659e+07
p2_c3_t0              1.11962e+10
p3_c3_t0              4.30498e+08
diff6                 8.05296e+08
normdiff6               0.0656785
z_c3_t1               1.42798e+10
p0_c3_t1              1.53697e+09
p1_c3_t1              9.56852e+07
p2_c3_t1              1.19773e+10
p3_c3_t1              6.69782e+08
diff7                           0
normdiff7                       0
z_c4_t0               7.97197e+09
p0_c4_t0              5.99755e+08
p1_c4_t0              1.05596e+08
p2_c4_t0              7.18494e+09
p3_c4_t0              8.16794e+07
diff8                           0
normdiff8                       0
z_c4_t1                8.9819e+09
p0_c4_t1              6.20173e+08
p1_c4_t1              9.72162e+07
p2_c4_t1              8.15857e+09
p3_c4_t1              1.05941e+08
diff9                           0
normdiff9                       0
z_c5_t0               1.00642e+10
p0_c5_t0              1.05765e+09
p1_c5_t0              8.90991e+07
p2_c5_t0              8.86709e+09
p3_c5_t0              5.03208e+07
diff10                          0
normdiff10                      0
z_c5_t1                1.2016e+10
p0_c5_t1               7.8039e+08
p1_c5_t1              8.82549e+07
p2_c5_t1              1.08893e+10
p3_c5_t1              2.58055e+08
diff11                          0
normdiff11                      0
z_c6_t0               1.81204e+10
p0_c6_t0              1.91206e+09
p1_c6_t0              1.12562e+08
p2_c6_t0              1.59315e+10
p3_c6_t0              1.64267e+08
diff12                          0
normdiff12                      0
z_c6_t1               2.06345e+10
p0_c6_t1              2.07654e+09
p1_c6_t1              1.03172e+08
p2_c6_t1              1.83067e+10
p3_c6_t1              1.48101e+08
diff13                          0
normdiff13                      0
